782,719
749,539
1051,526
663,288
975,555
829,554
1135,175
1095,471
364,-30
652,410
254,189
998,-30
787,352
999,88
764,662
681,-74
366,177
504,378
363,724
307,596
1081,202
868,501
858,434
620,791
980,818
910,91
540,600
521,487
